(declare-rel loop ((Array Int Int) (Array Int Int) Int Int ))
(declare-rel exit ())
(declare-var i Int )
(declare-var i1 Int )
(declare-var i2 Int )
(declare-var i3 Int )
(declare-var i4 Int )
(declare-var i_prev Int )
(declare-var i_prev1 Int )
(declare-var i_prev2 Int )
(declare-var i_prev3 Int )
(declare-var index_limit Int )
(declare-var a_i Int )
(declare-var a_i1 Int )
(declare-var a_i2 Int )
(declare-var a_i3 Int )
(declare-var a_i_prev Int )
(declare-var a_i_prev1 Int )
(declare-var a_i_prev2 Int )
(declare-var a_i_prev3 Int )
(declare-var b_i Int )
(declare-var b_i1 Int )
(declare-var b_i2 Int )
(declare-var b_i3 Int )
(declare-var count Int )
(declare-var a_array (Array Int Int) )
(declare-var a_array1 (Array Int Int) )
(declare-var a_array2 (Array Int Int) )
(declare-var a_array3 (Array Int Int) )
(declare-var a_array4 (Array Int Int) )
(declare-var b_array (Array Int Int) )

(rule (=> 
	(and 
		(= i 1)
	)
	(loop a_array b_array i count)
))
(rule (=> 
	(and 
		(loop a_array b_array i count)

		(= index_limit (* count 8))
		(< i index_limit)
		
		(= b_i (select b_array i))
		(= i_prev (- i 1))
		(= a_i_prev (select a_array i_prev))
		(= a_i (+ b_i a_i_prev))
		(= a_array1 (store a_array i a_i))
		(= i1 (+ i 2))

		(= b_i1 (select b_array i1))
		(= i_prev1 (- i1 1))
		(= a_i_prev1 (select a_array1 i_prev1))
		(= a_i1 (+ b_i1 a_i_prev1))
		(= a_array2 (store a_array1 i1 a_i1))
		(= i2 (+ i1 2))

		(= b_i2 (select b_array i2))
		(= i_prev2 (- i2 1))
		(= a_i_prev2 (select a_array2 i_prev2))
		(= a_i2 (+ b_i2 a_i_prev2))
		(= a_array3 (store a_array2 i2 a_i2))
		(= i3 (+ i2 2))

		(= b_i3 (select b_array i3))
		(= i_prev3 (- i3 1))
		(= a_i_prev3 (select a_array3 i_prev3))
		(= a_i3 (+ b_i3 a_i_prev3))
		(= a_array4 (store a_array3 i3 a_i3))
		(= i4 (+ i3 2))
	)
	(loop a_array4 b_array i4 count)
))
(rule (=> 
	(and 
		(loop a_array b_array i count)
		(= index_limit (* count 8))
		(not (< i index_limit))
	)
	exit
))
(query exit)